<?xml version="1.0" encoding="UTF-8"?><osil xmlns="os.optimizationservices.org" xmlns:xsi="http://www.w3.org/2001/XMLSchema-instance" xsi:schemaLocation="os.optimizationservices.org http://www.optimizationservices.org/schemas/2.0/OSiL.xsd"><instanceHeader><name>ex8_4_6</name></instanceHeader><instanceData><variables numberOfVariables="14"><var name="x1" ub="1"/><var name="x2" ub="1"/><var name="x3" ub="1"/><var name="x4" ub="1"/><var name="x5" ub="1"/><var name="x6" ub="1"/><var name="x7" ub="1"/><var name="x8" ub="1"/><var name="x9" lb="-10" ub="10"/><var name="x10" lb="-10" ub="10"/><var name="x11" lb="-10" ub="10"/><var name="x12" ub=".5"/><var name="x13" ub=".5"/><var name="x14" ub=".5"/></variables><objectives><obj maxOrMin="min" name="defObj_objvar" numberOfObjCoef="0"/></objectives><constraints numberOfConstraints="8"><con name="e2" lb="0" ub="0"/><con name="e3" lb="0" ub="0"/><con name="e4" lb="0" ub="0"/><con name="e5" lb="0" ub="0"/><con name="e6" lb="0" ub="0"/><con name="e7" lb="0" ub="0"/><con name="e8" lb="0" ub="0"/><con name="e9" lb="0" ub="0"/></constraints><linearConstraintCoefficients numberOfValues="8"><start><el mult="9" incr="1">0</el></start><colIdx><el mult="8" incr="1">0</el></colIdx><value><el mult="8">-1</el></value></linearConstraintCoefficients><nonlinearExpressions numberOfNonlinearExpressions="9"><nl idx="-1"><sum><square><divide><sum><number value="-.1622"/><variable idx="0"/></sum><variable idx="0"/></divide></square><square><divide><sum><number value="-.6791"/><variable idx="1"/></sum><variable idx="1"/></divide></square><square><divide><sum><number value="-.679"/><variable idx="2"/></sum><variable idx="2"/></divide></square><square><divide><sum><number value="-.3875"/><variable idx="3"/></sum><variable idx="3"/></divide></square><square><divide><sum><number value="-.1822"/><variable idx="4"/></sum><variable idx="4"/></divide></square><square><divide><sum><number value="-.1249"/><variable idx="5"/></sum><variable idx="5"/></divide></square><square><divide><sum><number value="-8.57e-2"/><variable idx="6"/></sum><variable idx="6"/></divide></square><square><divide><sum><number value="-6.16e-2"/><variable idx="7"/></sum><variable idx="7"/></divide></square></sum></nl><nl idx="0"><sum><product><exp><variable idx="11" coef="-4"/></exp><variable idx="8"/></product><product><exp><variable idx="12" coef="-4"/></exp><variable idx="9"/></product><product><exp><variable idx="13" coef="-4"/></exp><variable idx="10"/></product></sum></nl><nl idx="1"><sum><product><exp><variable idx="11" coef="-8"/></exp><variable idx="8"/></product><product><exp><variable idx="12" coef="-8"/></exp><variable idx="9"/></product><product><exp><variable idx="13" coef="-8"/></exp><variable idx="10"/></product></sum></nl><nl idx="2"><sum><product><exp><variable idx="11" coef="-12"/></exp><variable idx="8"/></product><product><exp><variable idx="12" coef="-12"/></exp><variable idx="9"/></product><product><exp><variable idx="13" coef="-12"/></exp><variable idx="10"/></product></sum></nl><nl idx="3"><sum><product><exp><variable idx="11" coef="-24"/></exp><variable idx="8"/></product><product><exp><variable idx="12" coef="-24"/></exp><variable idx="9"/></product><product><exp><variable idx="13" coef="-24"/></exp><variable idx="10"/></product></sum></nl><nl idx="4"><sum><product><exp><variable idx="11" coef="-48"/></exp><variable idx="8"/></product><product><exp><variable idx="12" coef="-48"/></exp><variable idx="9"/></product><product><exp><variable idx="13" coef="-48"/></exp><variable idx="10"/></product></sum></nl><nl idx="5"><sum><product><exp><variable idx="11" coef="-72"/></exp><variable idx="8"/></product><product><exp><variable idx="12" coef="-72"/></exp><variable idx="9"/></product><product><exp><variable idx="13" coef="-72"/></exp><variable idx="10"/></product></sum></nl><nl idx="6"><sum><product><exp><variable idx="11" coef="-94"/></exp><variable idx="8"/></product><product><exp><variable idx="12" coef="-94"/></exp><variable idx="9"/></product><product><exp><variable idx="13" coef="-94"/></exp><variable idx="10"/></product></sum></nl><nl idx="7"><sum><product><exp><variable idx="11" coef="-118"/></exp><variable idx="8"/></product><product><exp><variable idx="12" coef="-118"/></exp><variable idx="9"/></product><product><exp><variable idx="13" coef="-118"/></exp><variable idx="10"/></product></sum></nl></nonlinearExpressions></instanceData></osil>